3 
4  56 
5  12 27 42 58 
6  08 13 18 23 28 33 38 43 48 53 58 
7  03 08 13 18 23 28 33 38 43 48 53 58 
8  03 08 13 18 23 28 33 38 43 48 53 58 
9  03 08 13 18 23 29 35 43 50 58 
10  05 13 20 28 35 43 50 58 
11  05 13 20 28 35 43 50 58 
12  05 13 20 28 35 43 50 58 
13  05 12 20 28 35 43 50 58 
14  05 12 20 28 35 43 48 53 57 
15  03 08 13 18 23 27 33 38 42 48 53 57 
16  03 08 12 18 23 27 33 38 42 48 53 57 
17  03 08 12 18 23 27 33 38 43 48 53 58 
18  03 08 13 18 23 28 33 39 45 51 58 
19  05 13 20 28 35 43 49 56 
20  04 12 19 30 45 52 
21  00 15 30 45 55 
22  10 25 41 56 
23 
0 
